(declare-const BAV1 Bool)
(declare-const GEN2 Real)
(declare-const GEN1 Real)
(declare-const x Real)
(declare-const y Real)
(declare-const z Real)
(assert (= (^ x (- (/ GEN1 GEN2))) y))
(apply purify-arith)
(apply (! purify-arith :expand-power true))
(apply (! purify-arith :expand-power true :complete false))
(assert (= BAV1 (= (^ x (- (/ GEN1 GEN2))) y)))